s td 36 14 50
b 1 9 20
b 2 5 8 37
b 3 1 11 44
b 4 18 27 30
b 5 24 32 45
b 6 10 29 49 50
b 7 5 12 19 39
b 8 1 2 14 21 24 28 31 32 36 37 41 42 49 50
b 9 2 12 14 19 21 24 28 31 32 37 41 42 49 50
b 10 2 12 14 19 24 28 29 31 32 41 42 49 50
b 11 3 19 28 29 32 41
b 12 2 7 12 14 19 24 28 29 31 32 41 42 49
b 13 2 7 12 15 19 24 29 31 32 42 49
b 14 2 7 15 19 29 30 31 32 42 49
b 15 2 4 7 15 19 30 31 32 42
b 16 2 4 7 15 19 30 31 34
b 17 2 4 7 15 34 38
b 18 2 4 7 23 38
b 19 2 7 31 34 43
b 20 7 19 22 24 29 32
b 21 12 19 28 29 31 40
b 22 2 12 19 21 25 31 32 37 42 49 50
b 23 12 19 21 25 31 37 46 49
b 24 12 19 21 31 37 46 47
b 25 5 12 19 21 37 47
b 26 1 9 14 21 24 28 31 32 36 37 41 42 49 50
b 27 1 9 14 21 24 28 31 32 35 36 41 49
b 28 1 6 14 24 31 35 41
b 29 1 6 14 16 35
b 30 9 13 21 24 28 31 32 35 41 49
b 31 13 17 21 28 32 41
b 32 13 21 24 33 49
b 33 1 2 14 26 28 31 36 37 41 42 49
b 34 1 2 26 28 31 41 42 48
b 35 1 26 41 44 48
b 36 27 29 30 32 49
1 26
2 25
3 35
4 36
5 8
6 10
7 25
8 9
8 26
8 33
9 10
9 22
10 11
10 12
10 21
12 13
12 20
13 14
14 36
14 15
15 16
16 17
16 19
17 18
22 23
23 24
24 25
26 27
27 28
27 30
28 29
30 31
30 32
33 34
34 35
